language Essence 1.3
letting nnodes be 13
letting nrings be 7
letting capacity be 5
letting demand be {{1, 12},
{2, 5},
{2, 6},
{2, 12},
{3, 6},
{3, 8},
{3, 9},
{3, 12},
{3, 13},
{4, 6},
{4, 13},
{5, 9},
{5, 10},
{5, 12},
{6, 8},
{6, 13},
{7, 9},
{8, 10},
{8, 11},
{9, 13},
{10, 11},
{10, 13},
{11, 12},
{11, 13}}
